(set-logic QF_NRA)
(set-info :source |Benchmarks generated from hycomp (https://es-static.fbk.eu/tools/hycomp/). BMC instances of non-linear hybrid automata taken from: Alessandro Cimatti, Sergio Mover, Stefano Tonetta, A quantifier-free SMT encoding of non-linear hybrid automata, FMCAD 2012 and Alessandro Cimatti, Sergio Mover, Stefano Tonetta, Quantier-free encoding of invariants for Hybrid Systems, Formal Methods in System Design. This instance solves a BMC problem of depth 1 and uses the quantifier free encoding with lemmas encoding. Contacts: Sergio Mover (mover@fbk.eu), Stefano Tonetta (tonettas@fbk.eu), Alessandro Cimatti (cimatti@fbk.eu).|)
(set-info :smt-lib-version 2.0)
(set-info :category "industrial")
(set-info :status unsat)
;; MathSAT API call trace
;; generated on Mon Mar 19 10:45:23 2012
(declare-fun b.y__AT1 () Real)
(declare-fun b.x__AT0 () Real)
(declare-fun b.speed_y__AT0 () Real)
(declare-fun b.event_is_timed__AT0 () Bool)
(declare-fun b.speed_x__AT0 () Real)
(declare-fun b.event_is_timed__AT1 () Bool)
(declare-fun b.time__AT0 () Real)
(declare-fun b.speed_y__AT1 () Real)
(declare-fun b.y__AT0 () Real)
(declare-fun b.counter.0__AT0 () Bool)
(declare-fun b.counter.1__AT0 () Bool)
(declare-fun b.time__AT1 () Real)
(declare-fun b.bool_atom__AT0 () Bool)
(declare-fun b.counter.2__AT0 () Bool)
(declare-fun b.delta__AT1 () Real)
(declare-fun b.EVENT.0__AT1 () Bool)
(declare-fun b.delta__AT0 () Real)
(declare-fun b.speed_x__AT1 () Real)
(declare-fun b.EVENT.0__AT0 () Bool)
(declare-fun b.x__AT1 () Real)
(declare-fun b.counter.0__AT1 () Bool)
(declare-fun b.EVENT.1__AT0 () Bool)
(declare-fun b.counter.1__AT1 () Bool)
(declare-fun b.counter.2__AT1 () Bool)
(declare-fun b.counter.3__AT1 () Bool)
(declare-fun b.bool_atom__AT1 () Bool)
(declare-fun b.EVENT.1__AT1 () Bool)
(declare-fun b.speed_loss__AT0 () Real)
(declare-fun b.counter.3__AT0 () Bool)
(assert (let ((.def_401 (* (- 1.0) b.speed_x__AT1)))
(let ((.def_402 (* b.speed_x__AT1 .def_401)))
(let ((.def_403 (* (- 1.0) .def_402)))
(let ((.def_431 (* 2.0 .def_403)))
(let ((.def_489 (* (- 1.0) .def_431)))
(let ((.def_490 (* b.delta__AT1 .def_489)))
(let ((.def_491 (* (- 5.0) .def_490)))
(let ((.def_341 (* (- 1.0) b.x__AT1)))
(let ((.def_414 (* b.speed_x__AT1 .def_341)))
(let ((.def_436 (* (- 5.0) .def_414)))
(let ((.def_496 (+ .def_436 .def_491)))
(let ((.def_409 (* b.x__AT1 .def_401)))
(let ((.def_434 (* (- 5.0) .def_409)))
(let ((.def_497 (+ .def_434 .def_496)))
(let ((.def_438 (* (- 49.0) b.delta__AT1)))
(let ((.def_498 (+ .def_438 .def_497)))
(let ((.def_440 (* 5.0 b.speed_y__AT1)))
(let ((.def_499 (+ .def_440 .def_498)))
(let ((.def_502 (<= 0.0 .def_499)))
(let ((.def_509 (not .def_502)))
(let ((.def_415 (* (- 1.0) .def_414)))
(let ((.def_410 (* (- 1.0) .def_409)))
(let ((.def_448 (+ .def_410 .def_415)))
(let ((.def_449 (+ b.speed_y__AT1 .def_448)))
(let ((.def_450 (<= 0.0 .def_449)))
(let ((.def_510 (or .def_450 .def_509)))
(let ((.def_500 (<= .def_499 0.0 )))
(let ((.def_464 (<= .def_449 0.0 )))
(let ((.def_465 (not .def_464)))
(let ((.def_508 (or .def_465 .def_500)))
(let ((.def_511 (and .def_508 .def_510)))
(let ((.def_480 (<= .def_402 (- (/ 49 10)))))
(let ((.def_512 (or .def_480 .def_511)))
(let ((.def_504 (not .def_500)))
(let ((.def_505 (or .def_464 .def_504)))
(let ((.def_451 (not .def_450)))
(let ((.def_503 (or .def_451 .def_502)))
(let ((.def_506 (and .def_503 .def_505)))
(let ((.def_485 (<= (- (/ 49 10)) .def_402)))
(let ((.def_507 (or .def_485 .def_506)))
(let ((.def_513 (and .def_507 .def_512)))
(let ((.def_501 (and .def_464 .def_500)))
(let ((.def_514 (and .def_501 .def_513)))
(let ((.def_432 (* b.delta__AT1 .def_431)))
(let ((.def_433 (* 5.0 .def_432)))
(let ((.def_442 (+ .def_436 .def_433)))
(let ((.def_443 (+ .def_434 .def_442)))
(let ((.def_444 (+ .def_438 .def_443)))
(let ((.def_445 (+ .def_440 .def_444)))
(let ((.def_462 (<= .def_445 0.0 )))
(let ((.def_463 (not .def_462)))
(let ((.def_483 (or .def_463 .def_464)))
(let ((.def_446 (<= 0.0 .def_445)))
(let ((.def_482 (or .def_446 .def_451)))
(let ((.def_484 (and .def_482 .def_483)))
(let ((.def_486 (or .def_484 .def_485)))
(let ((.def_447 (not .def_446)))
(let ((.def_478 (or .def_447 .def_450)))
(let ((.def_477 (or .def_462 .def_465)))
(let ((.def_479 (and .def_477 .def_478)))
(let ((.def_481 (or .def_479 .def_480)))
(let ((.def_487 (and .def_481 .def_486)))
(let ((.def_476 (and .def_446 .def_450)))
(let ((.def_488 (and .def_476 .def_487)))
(let ((.def_515 (or .def_488 .def_514)))
(let ((.def_416 (* b.delta__AT1 .def_415)))
(let ((.def_417 (* 10.0 .def_416)))
(let ((.def_411 (* b.delta__AT1 .def_410)))
(let ((.def_412 (* 10.0 .def_411)))
(let ((.def_423 (+ .def_412 .def_417)))
(let ((.def_400 (* b.delta__AT1 b.delta__AT1)))
(let ((.def_404 (* .def_400 .def_403)))
(let ((.def_405 (* 10.0 .def_404)))
(let ((.def_424 (+ .def_405 .def_423)))
(let ((.def_407 (* (- 49.0) .def_400)))
(let ((.def_425 (+ .def_407 .def_424)))
(let ((.def_398 (* b.speed_y__AT1 b.delta__AT1)))
(let ((.def_399 (* 10.0 .def_398)))
(let ((.def_426 (+ .def_399 .def_425)))
(let ((.def_387 (* b.x__AT1 .def_341)))
(let ((.def_419 (* (- 10.0) .def_387)))
(let ((.def_427 (+ .def_419 .def_426)))
(let ((.def_421 (* 10.0 b.y__AT1)))
(let ((.def_428 (+ .def_421 .def_427)))
(let ((.def_456 (<= .def_428 0.0 )))
(let ((.def_470 (not .def_456)))
(let ((.def_454 (<= b.y__AT1 .def_387)))
(let ((.def_471 (or .def_454 .def_470)))
(let ((.def_388 (<= .def_387 b.y__AT1)))
(let ((.def_468 (not .def_388)))
(let ((.def_429 (<= 0.0 .def_428)))
(let ((.def_469 (or .def_429 .def_468)))
(let ((.def_472 (and .def_469 .def_471)))
(let ((.def_466 (or .def_463 .def_465)))
(let ((.def_467 (not .def_466)))
(let ((.def_473 (or .def_467 .def_472)))
(let ((.def_458 (not .def_429)))
(let ((.def_459 (or .def_388 .def_458)))
(let ((.def_455 (not .def_454)))
(let ((.def_457 (or .def_455 .def_456)))
(let ((.def_460 (and .def_457 .def_459)))
(let ((.def_452 (or .def_447 .def_451)))
(let ((.def_453 (not .def_452)))
(let ((.def_461 (or .def_453 .def_460)))
(let ((.def_474 (and .def_461 .def_473)))
(let ((.def_430 (and .def_388 .def_429)))
(let ((.def_475 (and .def_430 .def_474)))
(let ((.def_516 (and .def_475 .def_515)))
(let ((.def_66 (<= b.speed_loss__AT0 (/ 1 2))))
(let ((.def_63 (<= (/ 1 10) b.speed_loss__AT0)))
(let ((.def_67 (and .def_63 .def_66)))
(let ((.def_517 (and .def_67 .def_516)))
(let ((.def_35 (not b.counter.0__AT0)))
(let ((.def_392 (or b.counter.1__AT0 .def_35)))
(let ((.def_38 (not b.counter.2__AT0)))
(let ((.def_393 (or .def_38 .def_392)))
(let ((.def_394 (or b.counter.3__AT0 .def_393)))
(let ((.def_389 (and .def_67 .def_388)))
(let ((.def_384 (not b.EVENT.0__AT1)))
(let ((.def_382 (not b.EVENT.1__AT1)))
(let ((.def_385 (or .def_382 .def_384)))
(let ((.def_289 (not b.counter.1__AT1)))
(let ((.def_4 (not b.counter.0__AT1)))
(let ((.def_375 (or .def_4 .def_289)))
(let ((.def_379 (or b.counter.3__AT1 .def_375)))
(let ((.def_376 (or b.counter.2__AT1 .def_375)))
(let ((.def_8 (not b.counter.2__AT1)))
(let ((.def_374 (or .def_4 .def_8)))
(let ((.def_377 (and .def_374 .def_376)))
(let ((.def_306 (not b.counter.3__AT1)))
(let ((.def_378 (or .def_306 .def_377)))
(let ((.def_380 (and .def_378 .def_379)))
(let ((.def_386 (and .def_380 .def_385)))
(let ((.def_390 (and .def_386 .def_389)))
(let ((.def_369 (<= 0.0 b.delta__AT0)))
(let ((.def_54 (not b.EVENT.0__AT0)))
(let ((.def_52 (not b.EVENT.1__AT0)))
(let ((.def_201 (and .def_52 .def_54)))
(let ((.def_203 (not .def_201)))
(let ((.def_370 (or .def_203 .def_369)))
(let ((.def_371 (or b.EVENT.1__AT0 .def_370)))
(let ((.def_242 (= b.bool_atom__AT0 b.bool_atom__AT1)))
(let ((.def_237 (= b.counter.0__AT1 b.counter.0__AT0)))
(let ((.def_235 (= b.counter.1__AT1 b.counter.1__AT0)))
(let ((.def_233 (= b.counter.2__AT1 b.counter.2__AT0)))
(let ((.def_232 (= b.counter.3__AT1 b.counter.3__AT0)))
(let ((.def_234 (and .def_232 .def_233)))
(let ((.def_236 (and .def_234 .def_235)))
(let ((.def_238 (and .def_236 .def_237)))
(let ((.def_365 (and .def_238 .def_242)))
(let ((.def_366 (or .def_203 .def_365)))
(let ((.def_367 (or b.EVENT.1__AT0 .def_366)))
(let ((.def_354 (* (- 10.0) b.y__AT1)))
(let ((.def_75 (* b.delta__AT0 b.delta__AT0)))
(let ((.def_84 (* (- 49.0) .def_75)))
(let ((.def_357 (+ .def_84 .def_354)))
(let ((.def_73 (* b.speed_y__AT0 b.delta__AT0)))
(let ((.def_74 (* 10.0 .def_73)))
(let ((.def_358 (+ .def_74 .def_357)))
(let ((.def_99 (* 10.0 b.y__AT0)))
(let ((.def_359 (+ .def_99 .def_358)))
(let ((.def_360 (= .def_359 0.0 )))
(let ((.def_348 (* (- 5.0) b.speed_y__AT1)))
(let ((.def_118 (* (- 49.0) b.delta__AT0)))
(let ((.def_349 (+ .def_118 .def_348)))
(let ((.def_120 (* 5.0 b.speed_y__AT0)))
(let ((.def_350 (+ .def_120 .def_349)))
(let ((.def_351 (= .def_350 0.0 )))
(let ((.def_340 (* b.speed_x__AT0 b.delta__AT0)))
(let ((.def_344 (+ .def_341 .def_340)))
(let ((.def_345 (+ b.x__AT0 .def_344)))
(let ((.def_346 (= .def_345 0.0 )))
(let ((.def_227 (= b.speed_x__AT0 b.speed_x__AT1)))
(let ((.def_347 (and .def_227 .def_346)))
(let ((.def_352 (and .def_347 .def_351)))
(let ((.def_361 (and .def_352 .def_360)))
(let ((.def_362 (or .def_203 .def_361)))
(let ((.def_224 (= b.y__AT0 b.y__AT1)))
(let ((.def_221 (= b.x__AT0 b.x__AT1)))
(let ((.def_334 (and .def_221 .def_224)))
(let ((.def_335 (and .def_227 .def_334)))
(let ((.def_230 (= b.speed_y__AT0 b.speed_y__AT1)))
(let ((.def_336 (and .def_230 .def_335)))
(let ((.def_331 (= b.delta__AT0 0.0 )))
(let ((.def_332 (and .def_201 .def_331)))
(let ((.def_333 (not .def_332)))
(let ((.def_337 (or .def_333 .def_336)))
(let ((.def_338 (or b.EVENT.1__AT0 .def_337)))
(let ((.def_323 (and .def_227 .def_230)))
(let ((.def_324 (and .def_238 .def_323)))
(let ((.def_325 (or b.bool_atom__AT0 .def_324)))
(let ((.def_298 (or .def_4 b.counter.0__AT0)))
(let ((.def_297 (or b.counter.0__AT1 .def_35)))
(let ((.def_299 (and .def_297 .def_298)))
(let ((.def_300 (and .def_289 .def_299)))
(let ((.def_301 (or b.counter.1__AT0 .def_300)))
(let ((.def_33 (not b.counter.1__AT0)))
(let ((.def_296 (or b.counter.1__AT1 .def_33)))
(let ((.def_302 (and .def_296 .def_301)))
(let ((.def_314 (and .def_8 .def_302)))
(let ((.def_315 (or b.counter.2__AT0 .def_314)))
(let ((.def_309 (and .def_35 .def_289)))
(let ((.def_310 (or b.counter.1__AT0 .def_309)))
(let ((.def_311 (and .def_296 .def_310)))
(let ((.def_312 (and b.counter.2__AT1 .def_311)))
(let ((.def_313 (or .def_38 .def_312)))
(let ((.def_316 (and .def_313 .def_315)))
(let ((.def_317 (and b.counter.3__AT1 .def_316)))
(let ((.def_318 (or b.counter.3__AT0 .def_317)))
(let ((.def_303 (and b.counter.2__AT1 .def_302)))
(let ((.def_304 (or b.counter.2__AT0 .def_303)))
(let ((.def_292 (or b.counter.1__AT1 b.counter.1__AT0)))
(let ((.def_290 (and b.counter.0__AT1 .def_289)))
(let ((.def_291 (or .def_33 .def_290)))
(let ((.def_293 (and .def_291 .def_292)))
(let ((.def_294 (and .def_8 .def_293)))
(let ((.def_295 (or .def_38 .def_294)))
(let ((.def_305 (and .def_295 .def_304)))
(let ((.def_307 (and .def_305 .def_306)))
(let ((.def_41 (not b.counter.3__AT0)))
(let ((.def_308 (or .def_41 .def_307)))
(let ((.def_319 (and .def_308 .def_318)))
(let ((.def_280 (* b.speed_y__AT0 b.speed_y__AT0)))
(let ((.def_279 (* b.speed_x__AT0 b.speed_x__AT0)))
(let ((.def_281 (+ .def_279 .def_280)))
(let ((.def_261 (* (- 1.0) b.speed_loss__AT0)))
(let ((.def_262 (+ 1.0 .def_261)))
(let ((.def_278 (* .def_262 .def_262)))
(let ((.def_282 (* .def_278 .def_281)))
(let ((.def_284 (* (- 1.0) .def_282)))
(let ((.def_275 (* b.speed_y__AT1 b.speed_y__AT1)))
(let ((.def_285 (+ .def_275 .def_284)))
(let ((.def_273 (* b.speed_x__AT1 b.speed_x__AT1)))
(let ((.def_286 (+ .def_273 .def_285)))
(let ((.def_287 (= .def_286 0.0 )))
(let ((.def_266 (* b.speed_y__AT0 .def_262)))
(let ((.def_249 (* (- 2.0) b.x__AT0)))
(let ((.def_250 (* (- 1.0) .def_249)))
(let ((.def_263 (* .def_250 .def_262)))
(let ((.def_264 (* b.speed_x__AT0 .def_263)))
(let ((.def_269 (+ .def_264 .def_266)))
(let ((.def_258 (* (- 2.0) b.x__AT1)))
(let ((.def_259 (* (- 1.0) .def_258)))
(let ((.def_260 (* b.speed_x__AT1 .def_259)))
(let ((.def_270 (+ .def_260 .def_269)))
(let ((.def_271 (+ b.speed_y__AT1 .def_270)))
(let ((.def_272 (= .def_271 0.0 )))
(let ((.def_288 (and .def_272 .def_287)))
(let ((.def_320 (and .def_288 .def_319)))
(let ((.def_257 (not b.bool_atom__AT0)))
(let ((.def_321 (or .def_257 .def_320)))
(let ((.def_251 (* b.speed_x__AT0 .def_250)))
(let ((.def_252 (+ b.speed_y__AT0 .def_251)))
(let ((.def_253 (<= 0.0 .def_252)))
(let ((.def_254 (not .def_253)))
(let ((.def_58 (* (- 1.0) b.x__AT0)))
(let ((.def_59 (* b.x__AT0 .def_58)))
(let ((.def_247 (= b.y__AT0 .def_59)))
(let ((.def_255 (and .def_247 .def_254)))
(let ((.def_256 (= b.bool_atom__AT0 .def_255)))
(let ((.def_322 (and .def_256 .def_321)))
(let ((.def_326 (and .def_322 .def_325)))
(let ((.def_327 (and .def_221 .def_326)))
(let ((.def_328 (and .def_224 .def_327)))
(let ((.def_329 (or .def_201 .def_328)))
(let ((.def_330 (or b.EVENT.1__AT0 .def_329)))
(let ((.def_339 (and .def_330 .def_338)))
(let ((.def_363 (and .def_339 .def_362)))
(let ((.def_208 (= b.time__AT0 b.time__AT1)))
(let ((.def_222 (and .def_208 .def_221)))
(let ((.def_225 (and .def_222 .def_224)))
(let ((.def_228 (and .def_225 .def_227)))
(let ((.def_231 (and .def_228 .def_230)))
(let ((.def_239 (and .def_231 .def_238)))
(let ((.def_243 (and .def_239 .def_242)))
(let ((.def_244 (or .def_52 .def_243)))
(let ((.def_211 (* (- 1.0) b.time__AT1)))
(let ((.def_214 (+ b.delta__AT0 .def_211)))
(let ((.def_215 (+ b.time__AT0 .def_214)))
(let ((.def_216 (= .def_215 0.0 )))
(let ((.def_217 (or .def_203 .def_216)))
(let ((.def_218 (or b.EVENT.1__AT0 .def_217)))
(let ((.def_209 (or .def_201 .def_208)))
(let ((.def_210 (or b.EVENT.1__AT0 .def_209)))
(let ((.def_219 (and .def_210 .def_218)))
(let ((.def_245 (and .def_219 .def_244)))
(let ((.def_205 (= .def_203 b.event_is_timed__AT1)))
(let ((.def_202 (= b.event_is_timed__AT0 .def_201)))
(let ((.def_206 (and .def_202 .def_205)))
(let ((.def_246 (and .def_206 .def_245)))
(let ((.def_364 (and .def_246 .def_363)))
(let ((.def_368 (and .def_364 .def_367)))
(let ((.def_372 (and .def_368 .def_371)))
(let ((.def_373 (and .def_52 .def_372)))
(let ((.def_391 (and .def_373 .def_390)))
(let ((.def_395 (and .def_391 .def_394)))
(let ((.def_76 (* (- 1.0) b.speed_x__AT0)))
(let ((.def_77 (* b.speed_x__AT0 .def_76)))
(let ((.def_78 (* (- 1.0) .def_77)))
(let ((.def_109 (* 2.0 .def_78)))
(let ((.def_171 (* (- 1.0) .def_109)))
(let ((.def_172 (* b.delta__AT0 .def_171)))
(let ((.def_173 (* (- 5.0) .def_172)))
(let ((.def_91 (* b.speed_x__AT0 .def_58)))
(let ((.def_116 (* (- 5.0) .def_91)))
(let ((.def_178 (+ .def_116 .def_173)))
(let ((.def_86 (* b.x__AT0 .def_76)))
(let ((.def_114 (* (- 5.0) .def_86)))
(let ((.def_179 (+ .def_114 .def_178)))
(let ((.def_180 (+ .def_118 .def_179)))
(let ((.def_181 (+ .def_120 .def_180)))
(let ((.def_184 (<= 0.0 .def_181)))
(let ((.def_191 (not .def_184)))
(let ((.def_92 (* (- 1.0) .def_91)))
(let ((.def_87 (* (- 1.0) .def_86)))
(let ((.def_128 (+ .def_87 .def_92)))
(let ((.def_129 (+ b.speed_y__AT0 .def_128)))
(let ((.def_130 (<= 0.0 .def_129)))
(let ((.def_192 (or .def_130 .def_191)))
(let ((.def_182 (<= .def_181 0.0 )))
(let ((.def_144 (<= .def_129 0.0 )))
(let ((.def_145 (not .def_144)))
(let ((.def_190 (or .def_145 .def_182)))
(let ((.def_193 (and .def_190 .def_192)))
(let ((.def_162 (<= .def_77 (- (/ 49 10)))))
(let ((.def_194 (or .def_162 .def_193)))
(let ((.def_186 (not .def_182)))
(let ((.def_187 (or .def_144 .def_186)))
(let ((.def_131 (not .def_130)))
(let ((.def_185 (or .def_131 .def_184)))
(let ((.def_188 (and .def_185 .def_187)))
(let ((.def_167 (<= (- (/ 49 10)) .def_77)))
(let ((.def_189 (or .def_167 .def_188)))
(let ((.def_195 (and .def_189 .def_194)))
(let ((.def_183 (and .def_144 .def_182)))
(let ((.def_196 (and .def_183 .def_195)))
(let ((.def_110 (* b.delta__AT0 .def_109)))
(let ((.def_112 (* 5.0 .def_110)))
(let ((.def_122 (+ .def_116 .def_112)))
(let ((.def_123 (+ .def_114 .def_122)))
(let ((.def_124 (+ .def_118 .def_123)))
(let ((.def_125 (+ .def_120 .def_124)))
(let ((.def_142 (<= .def_125 0.0 )))
(let ((.def_143 (not .def_142)))
(let ((.def_165 (or .def_143 .def_144)))
(let ((.def_126 (<= 0.0 .def_125)))
(let ((.def_164 (or .def_126 .def_131)))
(let ((.def_166 (and .def_164 .def_165)))
(let ((.def_168 (or .def_166 .def_167)))
(let ((.def_127 (not .def_126)))
(let ((.def_158 (or .def_127 .def_130)))
(let ((.def_157 (or .def_142 .def_145)))
(let ((.def_159 (and .def_157 .def_158)))
(let ((.def_163 (or .def_159 .def_162)))
(let ((.def_169 (and .def_163 .def_168)))
(let ((.def_156 (and .def_126 .def_130)))
(let ((.def_170 (and .def_156 .def_169)))
(let ((.def_197 (or .def_170 .def_196)))
(let ((.def_93 (* b.delta__AT0 .def_92)))
(let ((.def_94 (* 10.0 .def_93)))
(let ((.def_88 (* b.delta__AT0 .def_87)))
(let ((.def_89 (* 10.0 .def_88)))
(let ((.def_101 (+ .def_89 .def_94)))
(let ((.def_79 (* .def_75 .def_78)))
(let ((.def_80 (* 10.0 .def_79)))
(let ((.def_102 (+ .def_80 .def_101)))
(let ((.def_103 (+ .def_84 .def_102)))
(let ((.def_104 (+ .def_74 .def_103)))
(let ((.def_97 (* (- 10.0) .def_59)))
(let ((.def_105 (+ .def_97 .def_104)))
(let ((.def_106 (+ .def_99 .def_105)))
(let ((.def_136 (<= .def_106 0.0 )))
(let ((.def_150 (not .def_136)))
(let ((.def_134 (<= b.y__AT0 .def_59)))
(let ((.def_151 (or .def_134 .def_150)))
(let ((.def_60 (<= .def_59 b.y__AT0)))
(let ((.def_148 (not .def_60)))
(let ((.def_107 (<= 0.0 .def_106)))
(let ((.def_149 (or .def_107 .def_148)))
(let ((.def_152 (and .def_149 .def_151)))
(let ((.def_146 (or .def_143 .def_145)))
(let ((.def_147 (not .def_146)))
(let ((.def_153 (or .def_147 .def_152)))
(let ((.def_138 (not .def_107)))
(let ((.def_139 (or .def_60 .def_138)))
(let ((.def_135 (not .def_134)))
(let ((.def_137 (or .def_135 .def_136)))
(let ((.def_140 (and .def_137 .def_139)))
(let ((.def_132 (or .def_127 .def_131)))
(let ((.def_133 (not .def_132)))
(let ((.def_141 (or .def_133 .def_140)))
(let ((.def_154 (and .def_141 .def_153)))
(let ((.def_108 (and .def_60 .def_107)))
(let ((.def_155 (and .def_108 .def_154)))
(let ((.def_198 (and .def_155 .def_197)))
(let ((.def_199 (and .def_67 .def_198)))
(let ((.def_68 (and .def_60 .def_67)))
(let ((.def_55 (or .def_52 .def_54)))
(let ((.def_45 (or .def_33 .def_35)))
(let ((.def_49 (or b.counter.3__AT0 .def_45)))
(let ((.def_46 (or b.counter.2__AT0 .def_45)))
(let ((.def_44 (or .def_35 .def_38)))
(let ((.def_47 (and .def_44 .def_46)))
(let ((.def_48 (or .def_41 .def_47)))
(let ((.def_50 (and .def_48 .def_49)))
(let ((.def_56 (and .def_50 .def_55)))
(let ((.def_69 (and .def_56 .def_68)))
(let ((.def_36 (and .def_33 .def_35)))
(let ((.def_39 (and .def_36 .def_38)))
(let ((.def_42 (and .def_39 .def_41)))
(let ((.def_30 (= b.speed_y__AT0 1.0 )))
(let ((.def_27 (= b.speed_x__AT0 1.0 )))
(let ((.def_23 (= b.y__AT0 10.0 )))
(let ((.def_19 (= b.x__AT0 0.0 )))
(let ((.def_15 (= b.time__AT0 0.0 )))
(let ((.def_17 (and .def_15 b.event_is_timed__AT0)))
(let ((.def_20 (and .def_17 .def_19)))
(let ((.def_24 (and .def_20 .def_23)))
(let ((.def_28 (and .def_24 .def_27)))
(let ((.def_31 (and .def_28 .def_30)))
(let ((.def_43 (and .def_31 .def_42)))
(let ((.def_70 (and .def_43 .def_69)))
(let ((.def_6 (or .def_4 b.counter.1__AT1)))
(let ((.def_9 (or .def_6 .def_8)))
(let ((.def_11 (or .def_9 b.counter.3__AT1)))
(let ((.def_12 (not .def_11)))
(let ((.def_71 (and .def_12 .def_70)))
(let ((.def_200 (and .def_71 .def_199)))
(let ((.def_396 (and .def_200 .def_395)))
(let ((.def_518 (and .def_396 .def_517)))
.def_518)))))))))))))))))))))))))))))))))))))))))))))))))))))))))))))))))))))))))))))))))))))))))))))))))))))))))))))))))))))))))))))))))))))))))))))))))))))))))))))))))))))))))))))))))))))))))))))))))))))))))))))))))))))))))))))))))))))))))))))))))))))))))))))))))))))))))))))))))))))))))))))))))))))))))))))))))))))))))))))))))))))))))))))))))))))))))))))))))))))))))))))))))))))))))))))))))))))))))))))))))))))))))))))))))))))))))))))))
(check-sat)
(exit)
